PROBLEM NAME: 	berlin52-TTP
KNAPSACK DATA TYPE: uncorrelated
DIMENSION:	52
NUMBER OF ITEMS: 	51
CAPACITY OF KNAPSACK: 	2245
MIN SPEED: 	0.1
MAX SPEED: 	1
RENTING RATIO: 	0.53
EDGE_WEIGHT_TYPE:	CEIL_2D
NODE_COORD_SECTION	(INDEX, X, Y): 
1	565.0	575.0
2	25.0	185.0
3	345.0	750.0
4	945.0	685.0
5	845.0	655.0
6	880.0	660.0
7	25.0	230.0
8	525.0	1000.0
9	580.0	1175.0
10	650.0	1130.0
11	1605.0	620.0
12	1220.0	580.0
13	1465.0	200.0
14	1530.0	5.0
15	845.0	680.0
16	725.0	370.0
17	145.0	665.0
18	415.0	635.0
19	510.0	875.0
20	560.0	365.0
21	300.0	465.0
22	520.0	585.0
23	480.0	415.0
24	835.0	625.0
25	975.0	580.0
26	1215.0	245.0
27	1320.0	315.0
28	1250.0	400.0
29	660.0	180.0
30	410.0	250.0
31	420.0	555.0
32	575.0	665.0
33	1150.0	1160.0
34	700.0	580.0
35	685.0	595.0
36	685.0	610.0
37	770.0	610.0
38	795.0	645.0
39	720.0	635.0
40	760.0	650.0
41	475.0	960.0
42	95.0	260.0
43	875.0	920.0
44	700.0	500.0
45	555.0	815.0
46	830.0	485.0
47	1170.0	65.0
48	830.0	610.0
49	605.0	625.0
50	595.0	360.0
51	1340.0	725.0
52	1740.0	245.0
ITEMS SECTION	(INDEX, PROFIT, WEIGHT, ASSIGNED NODE NUMBER): 
1	119	1	2
2	187	896	3
3	997	367	4
4	22	690	5
5	347	613	6
6	522	874	7
7	730	122	8
8	705	486	9
9	232	823	10
10	554	463	11
11	675	589	12
12	970	325	13
13	407	1000	14
14	276	776	15
15	331	123	16
16	361	356	17
17	798	305	18
18	427	47	19
19	439	645	20
20	91	139	21
21	650	247	22
22	10	211	23
23	838	100	24
24	725	627	25
25	843	760	26
26	137	776	27
27	977	475	28
28	718	937	29
29	99	101	30
30	609	281	31
31	819	751	32
32	97	530	33
33	975	240	34
34	226	248	35
35	241	768	36
36	584	31	37
37	348	613	38
38	475	881	39
39	178	367	40
40	641	712	41
41	898	410	42
42	250	157	43
43	391	824	44
44	101	242	45
45	636	472	46
46	87	722	47
47	652	775	48
48	867	371	49
49	54	337	50
50	509	885	51
51	989	204	52
